NAME : X-n548-k50
COMMENT : "Generated by Uchoa, Pecin, Pessoa, Poggi, Subramanian, and Vidal (2013)"
TYPE : CVRP
DIMENSION : 548
EDGE_WEIGHT_TYPE : EUC_2D
CAPACITY : 11
NODE_COORD_SECTION
1 0 0
2 221 542
3 320 456
4 576 827
5 679 994
6 371 461
7 961 844
8 986 379
9 175 540
10 126 517
11 329 626
12 477 890
13 191 356
14 584 917
15 308 653
16 0 7
17 273 302
18 672 381
19 235 415
20 583 149
21 672 124
22 644 646
23 400 544
24 832 999
25 842 964
26 582 965
27 544 311
28 429 2
29 939 849
30 898 605
31 363 130
32 639 874
33 323 201
34 829 350
35 7 53
36 801 92
37 57 330
38 943 0
39 579 275
40 833 402
41 408 940
42 635 871
43 631 630
44 733 313
45 344 619
46 628 291
47 674 92
48 74 602
49 38 354
50 473 107
51 668 279
52 510 811
53 366 16
54 49 182
55 528 946
56 271 745
57 405 872
58 65 893
59 622 488
60 668 978
61 939 73
62 556 632
63 270 446
64 586 348
65 951 167
66 385 308
67 247 997
68 992 460
69 128 590
70 746 847
71 279 459
72 428 183
73 364 167
74 656 687
75 547 792
76 517 152
77 252 618
78 464 284
79 184 96
80 457 269
81 590 47
82 348 609
83 777 112
84 528 198
85 877 457
86 812 650
87 864 723
88 584 875
89 817 233
90 186 909
91 439 447
92 560 994
93 818 658
94 134 903
95 447 951
96 969 519
97 488 401
98 142 666
99 287 534
100 399 181
101 141 22
102 29 248
103 313 643
104 20 974
105 294 475
106 439 214
107 327 361
108 79 657
109 165 601
110 345 144
111 90 914
112 400 256
113 177 633
114 549 135
115 812 166
116 887 565
117 455 695
118 180 298
119 658 126
120 18 638
121 327 299
122 195 261
123 245 439
124 355 299
125 827 854
126 881 666
127 144 893
128 34 637
129 187 150
130 350 673
131 380 917
132 271 505
133 347 879
134 45 456
135 930 78
136 860 22
137 448 112
138 236 704
139 222 587
140 670 76
141 333 821
142 521 123
143 642 795
144 152 816
145 50 360
146 325 936
147 24 690
148 836 158
149 351 981
150 405 377
151 159 405
152 825 285
153 187 320
154 342 200
155 290 713
156 304 144
157 216 909
158 46 173
159 613 524
160 35 950
161 298 667
162 257 579
163 775 393
164 860 681
165 996 407
166 42 719
167 379 14
168 195 581
169 75 328
170 295 405
171 481 721
172 539 661
173 6 525
174 239 471
175 88 989
176 965 196
177 460 479
178 927 260
179 663 933
180 626 229
181 814 564
182 737 136
183 620 811
184 253 65
185 645 544
186 877 977
187 825 518
188 656 780
189 235 74
190 881 673
191 101 93
192 221 710
193 69 200
194 115 635
195 721 215
196 414 959
197 336 858
198 270 287
199 912 701
200 278 898
201 426 373
202 867 569
203 354 11
204 937 660
205 434 965
206 753 436
207 681 746
208 86 648
209 656 239
210 604 359
211 979 146
212 507 27
213 94 695
214 424 827
215 287 592
216 554 230
217 952 222
218 48 840
219 99 106
220 661 456
221 133 601
222 635 416
223 860 852
224 842 165
225 752 0
226 173 90
227 469 632
228 184 590
229 619 482
230 981 411
231 778 389
232 359 222
233 751 498
234 201 444
235 91 710
236 111 324
237 867 389
238 309 269
239 669 317
240 768 421
241 889 891
242 605 483
243 221 579
244 729 804
245 442 624
246 719 697
247 413 1000
248 977 29
249 356 605
250 107 39
251 362 727
252 570 421
253 162 737
254 557 652
255 139 48
256 145 568
257 596 316
258 681 194
259 268 893
260 420 824
261 94 529
262 422 341
263 226 328
264 687 807
265 299 951
266 549 281
267 944 64
268 316 904
269 554 49
270 160 221
271 302 952
272 258 765
273 406 684
274 182 881
275 641 481
276 541 807
277 107 602
278 870 999
279 247 282
280 771 712
281 109 942
282 305 827
283 865 629
284 632 928
285 571 734
286 899 632
287 189 934
288 385 166
289 851 399
290 890 198
291 370 248
292 372 910
293 11 248
294 845 326
295 508 769
296 511 900
297 320 984
298 158 330
299 159 327
300 798 648
301 746 195
302 555 541
303 832 900
304 809 931
305 460 869
306 585 804
307 487 102
308 194 288
309 340 877
310 127 981
311 39 692
312 187 528
313 462 482
314 890 450
315 857 64
316 96 223
317 610 842
318 910 604
319 260 757
320 809 211
321 767 499
322 48 352
323 23 950
324 289 98
325 622 891
326 499 618
327 873 960
328 82 752
329 65 845
330 281 842
331 990 747
332 809 808
333 693 76
334 744 478
335 506 411
336 668 167
337 301 696
338 61 500
339 9 695
340 939 496
341 390 699
342 741 894
343 39 477
344 476 728
345 663 477
346 112 160
347 588 281
348 215 559
349 528 309
350 839 820
351 601 769
352 668 953
353 594 865
354 407 905
355 478 244
356 423 639
357 174 707
358 635 465
359 570 151
360 651 612
361 785 786
362 166 64
363 684 574
364 598 632
365 645 944
366 976 284
367 576 737
368 87 725
369 177 414
370 865 221
371 459 506
372 23 683
373 507 320
374 961 987
375 497 889
376 888 561
377 963 175
378 223 208
379 308 530
380 237 184
381 576 387
382 937 529
383 463 219
384 210 641
385 582 748
386 215 107
387 985 385
388 22 783
389 920 945
390 502 117
391 851 594
392 467 732
393 728 54
394 64 249
395 492 57
396 415 372
397 852 45
398 503 209
399 292 125
400 316 855
401 340 273
402 242 217
403 85 788
404 700 96
405 942 989
406 37 511
407 663 175
408 670 279
409 611 829
410 471 843
411 268 61
412 412 350
413 4 325
414 454 981
415 94 359
416 688 524
417 982 397
418 725 208
419 793 620
420 337 779
421 106 856
422 350 826
423 965 538
424 780 360
425 144 904
426 225 646
427 666 449
428 510 276
429 564 632
430 573 501
431 903 827
432 605 806
433 38 525
434 445 738
435 138 788
436 216 988
437 944 955
438 220 716
439 788 589
440 75 130
441 858 686
442 107 314
443 717 125
444 991 306
445 62 373
446 641 426
447 747 436
448 350 855
449 42 62
450 184 460
451 153 199
452 618 878
453 986 690
454 430 839
455 161 233
456 840 747
457 284 582
458 899 505
459 453 998
460 134 596
461 30 955
462 437 412
463 660 92
464 203 828
465 524 418
466 723 31
467 869 759
468 824 606
469 764 469
470 760 852
471 119 378
472 352 365
473 954 998
474 381 873
475 905 972
476 222 302
477 0 783
478 746 114
479 670 702
480 447 881
481 14 996
482 844 110
483 315 373
484 115 329
485 808 697
486 992 409
487 692 929
488 897 142
489 397 338
490 334 75
491 104 954
492 537 581
493 502 262
494 346 190
495 812 171
496 361 170
497 44 202
498 326 351
499 525 950
500 773 202
501 650 781
502 906 167
503 910 793
504 752 234
505 147 12
506 542 768
507 82 850
508 358 588
509 68 802
510 19 296
511 114 406
512 228 854
513 147 444
514 954 410
515 529 392
516 77 383
517 822 126
518 284 784
519 804 876
520 200 797
521 735 425
522 784 608
523 870 566
524 968 481
525 228 806
526 548 87
527 609 314
528 328 85
529 852 128
530 505 944
531 358 609
532 311 26
533 855 140
534 909 915
535 407 84
536 523 987
537 690 982
538 841 250
539 499 9
540 646 414
541 516 682
542 713 221
543 328 800
544 944 22
545 691 660
546 763 609
547 44 506
548 756 289
PICKUP_AND_DELIVERY_SECTION
1 0 0 1000000000 0 0 0
2 0 0 1000000000 0 0.4077 0.5923
3 0 0 1000000000 0 0.7018 0.2982
4 0 0 1000000000 0 0.6965 0.3035
5 0 0 1000000000 0 0.6831 0.3169
6 0 0 1000000000 0 0.8048 0.1952
7 0 0 1000000000 0 0.8783 0.1217
8 0 0 1000000000 0 0.3844 0.6156
9 0 0 1000000000 0 0.3241 0.6759
10 0 0 1000000000 0 0.2437 0.7563
11 0 0 1000000000 0 0.5256 0.4744
12 0 0 1000000000 0 0.536 0.464
13 0 0 1000000000 0 0.5365 0.4635
14 0 0 1000000000 0 0.6369 0.3631
15 0 0 1000000000 0 0.4717 0.5283
16 0 0 1000000000 0 0 1
17 0 0 1000000000 0 0.904 0.09603
18 0 0 1000000000 0 0.567 0.433
19 0 0 1000000000 0 0.5663 0.4337
20 0 0 1000000000 0 0.2556 0.7444
21 0 0 1000000000 0 0.1845 0.8155
22 0 0 1000000000 0 0.9969 0.0031
23 0 0 1000000000 0 0.7353 0.2647
24 0 0 1000000000 0 0.8328 0.1672
25 0 0 1000000000 0 0.8734 0.1266
26 0 0 1000000000 0 0.6031 0.3969
27 0 0 1000000000 0 0.5717 0.4283
28 0 0 1000000000 0 0.00466 0.9953
29 0 0 1000000000 0 0.9042 0.09585
30 0 0 1000000000 0 0.6737 0.3263
31 0 0 1000000000 0 0.3581 0.6419
32 0 0 1000000000 0 0.7311 0.2689
33 0 0 1000000000 0 0.6223 0.3777
34 0 0 1000000000 0 0.4222 0.5778
35 0 0 1000000000 0 0.1321 0.8679
36 0 0 1000000000 0 0.1149 0.8851
37 0 0 1000000000 0 0.1727 0.8273
38 0 0 1000000000 0 0 1
39 0 0 1000000000 0 0.475 0.525
40 0 0 1000000000 0 0.4826 0.5174
41 0 0 1000000000 0 0.434 0.566
42 0 0 1000000000 0 0.729 0.271
43 0 0 1000000000 0 0.9984 0.00158
44 0 0 1000000000 0 0.427 0.573
45 0 0 1000000000 0 0.5557 0.4443
46 0 0 1000000000 0 0.4634 0.5366
47 0 0 1000000000 0 0.1365 0.8635
48 0 0 1000000000 0 0.1229 0.8771
49 0 0 1000000000 0 0.1073 0.8927
50 0 0 1000000000 0 0.2262 0.7738
51 0 0 1000000000 0 0.4177 0.5823
52 0 0 1000000000 0 0.6289 0.3711
53 0 0 1000000000 0 0.04372 0.9563
54 0 0 1000000000 0 0.2692 0.7308
55 0 0 1000000000 0 0.5581 0.4419
56 0 0 1000000000 0 0.3638 0.6362
57 0 0 1000000000 0 0.4644 0.5356
58 0 0 1000000000 0 0.07279 0.9272
59 0 0 1000000000 0 0.7846 0.2154
60 0 0 1000000000 0 0.683 0.317
61 0 0 1000000000 0 0.07774 0.9223
62 0 0 1000000000 0 0.8797 0.1203
63 0 0 1000000000 0 0.6054 0.3946
64 0 0 1000000000 0 0.5939 0.4061
65 0 0 1000000000 0 0.1756 0.8244
66 0 0 1000000000 0 0.8 0.2
67 0 0 1000000000 0 0.2477 0.7523
68 0 0 1000000000 0 0.4637 0.5363
69 0 0 1000000000 0 0.2169 0.7831
70 0 0 1000000000 0 0.8808 0.1192
71 0 0 1000000000 0 0.6078 0.3922
72 0 0 1000000000 0 0.4276 0.5724
73 0 0 1000000000 0 0.4588 0.5412
74 0 0 1000000000 0 0.9549 0.04512
75 0 0 1000000000 0 0.6907 0.3093
76 0 0 1000000000 0 0.294 0.706
77 0 0 1000000000 0 0.4078 0.5922
78 0 0 1000000000 0 0.6121 0.3879
79 0 0 1000000000 0 0.5217 0.4783
80 0 0 1000000000 0 0.5886 0.4114
81 0 0 1000000000 0 0.07966 0.9203
82 0 0 1000000000 0 0.5714 0.4286
83 0 0 1000000000 0 0.1441 0.8559
84 0 0 1000000000 0 0.375 0.625
85 0 0 1000000000 0 0.5211 0.4789
86 0 0 1000000000 0 0.8005 0.1995
87 0 0 1000000000 0 0.8368 0.1632
88 0 0 1000000000 0 0.6674 0.3326
89 0 0 1000000000 0 0.2852 0.7148
90 0 0 1000000000 0 0.2046 0.7954
91 0 0 1000000000 0 0.9821 0.0179
92 0 0 1000000000 0 0.5634 0.4366
93 0 0 1000000000 0 0.8044 0.1956
94 0 0 1000000000 0 0.1484 0.8516
95 0 0 1000000000 0 0.47 0.53
96 0 0 1000000000 0 0.5356 0.4644
97 0 0 1000000000 0 0.8217 0.1783
98 0 0 1000000000 0 0.2132 0.7868
99 0 0 1000000000 0 0.5375 0.4625
100 0 0 1000000000 0 0.4536 0.5464
101 0 0 1000000000 0 0.156 0.844
102 0 0 1000000000 0 0.1169 0.8831
103 0 0 1000000000 0 0.4868 0.5132
104 0 0 1000000000 0 0.02053 0.9795
105 0 0 1000000000 0 0.6189 0.3811
106 0 0 1000000000 0 0.4875 0.5125
107 0 0 1000000000 0 0.9058 0.09418
108 0 0 1000000000 0 0.1202 0.8798
109 0 0 1000000000 0 0.2745 0.7255
110 0 0 1000000000 0 0.4174 0.5826
111 0 0 1000000000 0 0.09847 0.9015
112 0 0 1000000000 0 0.64 0.36
113 0 0 1000000000 0 0.2796 0.7204
114 0 0 1000000000 0 0.2459 0.7541
115 0 0 1000000000 0 0.2044 0.7956
116 0 0 1000000000 0 0.637 0.363
117 0 0 1000000000 0 0.6547 0.3453
118 0 0 1000000000 0 0.604 0.396
119 0 0 1000000000 0 0.1915 0.8085
120 0 0 1000000000 0 0.02821 0.9718
121 0 0 1000000000 0 0.9144 0.08563
122 0 0 1000000000 0 0.7471 0.2529
123 0 0 1000000000 0 0.5581 0.4419
124 0 0 1000000000 0 0.8423 0.1577
125 0 0 1000000000 0 0.9684 0.03162
126 0 0 1000000000 0 0.756 0.244
127 0 0 1000000000 0 0.1613 0.8387
128 0 0 1000000000 0 0.05338 0.9466
129 0 0 1000000000 0 0.8021 0.1979
130 0 0 1000000000 0 0.5201 0.4799
131 0 0 1000000000 0 0.4144 0.5856
132 0 0 1000000000 0 0.5366 0.4634
133 0 0 1000000000 0 0.3948 0.6052
134 0 0 1000000000 0 0.09868 0.9013
135 0 0 1000000000 0 0.08387 0.9161
136 0 0 1000000000 0 0.02558 0.9744
137 0 0 1000000000 0 0.25 0.75
138 0 0 1000000000 0 0.3352 0.6648
139 0 0 1000000000 0 0.3782 0.6218
140 0 0 1000000000 0 0.1134 0.8866
141 0 0 1000000000 0 0.4056 0.5944
142 0 0 1000000000 0 0.2361 0.7639
143 0 0 1000000000 0 0.8075 0.1925
144 0 0 1000000000 0 0.1863 0.8137
145 0 0 1000000000 0 0.1389 0.8611
146 0 0 1000000000 0 0.3472 0.6528
147 0 0 1000000000 0 0.03478 0.9652
148 0 0 1000000000 0 0.189 0.811
149 0 0 1000000000 0 0.3578 0.6422
150 0 0 1000000000 0 0.9309 0.06914
151 0 0 1000000000 0 0.3926 0.6074
152 0 0 1000000000 0 0.3455 0.6545
153 0 0 1000000000 0 0.5844 0.4156
154 0 0 1000000000 0 0.5848 0.4152
155 0 0 1000000000 0 0.4067 0.5933
156 0 0 1000000000 0 0.4737 0.5263
157 0 0 1000000000 0 0.2376 0.7624
158 0 0 1000000000 0 0.2659 0.7341
159 0 0 1000000000 0 0.8548 0.1452
160 0 0 1000000000 0 0.03684 0.9632
161 0 0 1000000000 0 0.4468 0.5532
162 0 0 1000000000 0 0.4439 0.5561
163 0 0 1000000000 0 0.5071 0.4929
164 0 0 1000000000 0 0.7919 0.2081
165 0 0 1000000000 0 0.4086 0.5914
166 0 0 1000000000 0 0.05841 0.9416
167 0 0 1000000000 0 0.03694 0.9631
168 0 0 1000000000 0 0.3356 0.6644
169 0 0 1000000000 0 0.2287 0.7713
170 0 0 1000000000 0 0.7284 0.2716
171 0 0 1000000000 0 0.6671 0.3329
172 0 0 1000000000 0 0.8154 0.1846
173 0 0 1000000000 0 0.01143 0.9886
174 0 0 1000000000 0 0.5074 0.4926
175 0 0 1000000000 0 0.08898 0.911
176 0 0 1000000000 0 0.2031 0.7969
177 0 0 1000000000 0 0.9603 0.03967
178 0 0 1000000000 0 0.2805 0.7195
179 0 0 1000000000 0 0.7106 0.2894
180 0 0 1000000000 0 0.3658 0.6342
181 0 0 1000000000 0 0.6929 0.3071
182 0 0 1000000000 0 0.1845 0.8155
183 0 0 1000000000 0 0.7645 0.2355
184 0 0 1000000000 0 0.2569 0.7431
185 0 0 1000000000 0 0.8434 0.1566
186 0 0 1000000000 0 0.8976 0.1024
187 0 0 1000000000 0 0.6279 0.3721
188 0 0 1000000000 0 0.841 0.159
189 0 0 1000000000 0 0.3149 0.6851
190 0 0 1000000000 0 0.7639 0.2361
191 0 0 1000000000 0 0.9208 0.07921
192 0 0 1000000000 0 0.3113 0.6887
193 0 0 1000000000 0 0.345 0.655
194 0 0 1000000000 0 0.1811 0.8189
195 0 0 1000000000 0 0.2982 0.7018
196 0 0 1000000000 0 0.4317 0.5683
197 0 0 1000000000 0 0.3916 0.6084
198 0 0 1000000000 0 0.9408 0.05923
199 0 0 1000000000 0 0.7686 0.2314
200 0 0 1000000000 0 0.3096 0.6904
201 0 0 1000000000 0 0.8756 0.1244
202 0 0 1000000000 0 0.6563 0.3437
203 0 0 1000000000 0 0.03107 0.9689
204 0 0 1000000000 0 0.7044 0.2956
205 0 0 1000000000 0 0.4497 0.5503
206 0 0 1000000000 0 0.579 0.421
207 0 0 1000000000 0 0.9129 0.08713
208 0 0 1000000000 0 0.1327 0.8673
209 0 0 1000000000 0 0.3643 0.6357
210 0 0 1000000000 0 0.5944 0.4056
211 0 0 1000000000 0 0.1491 0.8509
212 0 0 1000000000 0 0.05325 0.9467
213 0 0 1000000000 0 0.1353 0.8647
214 0 0 1000000000 0 0.5127 0.4873
215 0 0 1000000000 0 0.4848 0.5152
216 0 0 1000000000 0 0.4152 0.5848
217 0 0 1000000000 0 0.2332 0.7668
218 0 0 1000000000 0 0.05714 0.9429
219 0 0 1000000000 0 0.934 0.06604
220 0 0 1000000000 0 0.6899 0.3101
221 0 0 1000000000 0 0.2213 0.7787
222 0 0 1000000000 0 0.6551 0.3449
223 0 0 1000000000 0 0.9907 0.0093
224 0 0 1000000000 0 0.196 0.804
225 0 0 1000000000 0 0 1
226 0 0 1000000000 0 0.5202 0.4798
227 0 0 1000000000 0 0.7421 0.2579
228 0 0 1000000000 0 0.3119 0.6881
229 0 0 1000000000 0 0.7787 0.2213
230 0 0 1000000000 0 0.419 0.581
231 0 0 1000000000 0 0.5 0.5
232 0 0 1000000000 0 0.6184 0.3816
233 0 0 1000000000 0 0.6631 0.3369
234 0 0 1000000000 0 0.4527 0.5473
235 0 0 1000000000 0 0.1282 0.8718
236 0 0 1000000000 0 0.3426 0.6574
237 0 0 1000000000 0 0.4487 0.5513
238 0 0 1000000000 0 0.8706 0.1294
239 0 0 1000000000 0 0.4738 0.5262
240 0 0 1000000000 0 0.5482 0.4518
241 0 0 1000000000 0 0.9978 0.00224
242 0 0 1000000000 0 0.7983 0.2017
243 0 0 1000000000 0 0.3817 0.6183
244 0 0 1000000000 0 0.9067 0.09328
245 0 0 1000000000 0 0.7083 0.2917
246 0 0 1000000000 0 0.9694 0.0306
247 0 0 1000000000 0 0.413 0.587
248 0 0 1000000000 0 0.02968 0.9703
249 0 0 1000000000 0 0.5884 0.4116
250 0 0 1000000000 0 0.3645 0.6355
251 0 0 1000000000 0 0.4979 0.5021
252 0 0 1000000000 0 0.7386 0.2614
253 0 0 1000000000 0 0.2198 0.7802
254 0 0 1000000000 0 0.8543 0.1457
255 0 0 1000000000 0 0.3453 0.6547
256 0 0 1000000000 0 0.2553 0.7447
257 0 0 1000000000 0 0.5302 0.4698
258 0 0 1000000000 0 0.2849 0.7151
259 0 0 1000000000 0 0.3001 0.6999
260 0 0 1000000000 0 0.5097 0.4903
261 0 0 1000000000 0 0.1777 0.8223
262 0 0 1000000000 0 0.8081 0.1919
263 0 0 1000000000 0 0.689 0.311
264 0 0 1000000000 0 0.8513 0.1487
265 0 0 1000000000 0 0.3144 0.6856
266 0 0 1000000000 0 0.5118 0.4882
267 0 0 1000000000 0 0.0678 0.9322
268 0 0 1000000000 0 0.3496 0.6504
269 0 0 1000000000 0 0.08845 0.9116
270 0 0 1000000000 0 0.724 0.276
271 0 0 1000000000 0 0.3172 0.6828
272 0 0 1000000000 0 0.3373 0.6627
273 0 0 1000000000 0 0.5936 0.4064
274 0 0 1000000000 0 0.2066 0.7934
275 0 0 1000000000 0 0.7504 0.2496
276 0 0 1000000000 0 0.6704 0.3296
277 0 0 1000000000 0 0.1777 0.8223
278 0 0 1000000000 0 0.8709 0.1291
279 0 0 1000000000 0 0.8759 0.1241
280 0 0 1000000000 0 0.9235 0.07652
281 0 0 1000000000 0 0.1157 0.8843
282 0 0 1000000000 0 0.3688 0.6312
283 0 0 1000000000 0 0.7272 0.2728
284 0 0 1000000000 0 0.681 0.319
285 0 0 1000000000 0 0.7779 0.2221
286 0 0 1000000000 0 0.703 0.297
287 0 0 1000000000 0 0.2024 0.7976
288 0 0 1000000000 0 0.4312 0.5688
289 0 0 1000000000 0 0.4689 0.5311
290 0 0 1000000000 0 0.2225 0.7775
291 0 0 1000000000 0 0.6703 0.3297
292 0 0 1000000000 0 0.4088 0.5912
293 0 0 1000000000 0 0.04435 0.9556
294 0 0 1000000000 0 0.3858 0.6142
295 0 0 1000000000 0 0.6606 0.3394
296 0 0 1000000000 0 0.5678 0.4322
297 0 0 1000000000 0 0.3252 0.6748
298 0 0 1000000000 0 0.4788 0.5212
299 0 0 1000000000 0 0.4862 0.5138
300 0 0 1000000000 0 0.812 0.188
301 0 0 1000000000 0 0.2614 0.7386
302 0 0 1000000000 0 0.9748 0.02523
303 0 0 1000000000 0 0.9244 0.07556
304 0 0 1000000000 0 0.869 0.131
305 0 0 1000000000 0 0.5293 0.4707
306 0 0 1000000000 0 0.7276 0.2724
307 0 0 1000000000 0 0.2094 0.7906
308 0 0 1000000000 0 0.6736 0.3264
309 0 0 1000000000 0 0.3877 0.6123
310 0 0 1000000000 0 0.1295 0.8705
311 0 0 1000000000 0 0.05636 0.9436
312 0 0 1000000000 0 0.3542 0.6458
313 0 0 1000000000 0 0.9585 0.04149
314 0 0 1000000000 0 0.5056 0.4944
315 0 0 1000000000 0 0.07468 0.9253
316 0 0 1000000000 0 0.4305 0.5695
317 0 0 1000000000 0 0.7245 0.2755
318 0 0 1000000000 0 0.6637 0.3363
319 0 0 1000000000 0 0.3435 0.6565
320 0 0 1000000000 0 0.2608 0.7392
321 0 0 1000000000 0 0.6506 0.3494
322 0 0 1000000000 0 0.1364 0.8636
323 0 0 1000000000 0 0.02421 0.9758
324 0 0 1000000000 0 0.3391 0.6609
325 0 0 1000000000 0 0.6981 0.3019
326 0 0 1000000000 0 0.8074 0.1926
327 0 0 1000000000 0 0.9094 0.09062
328 0 0 1000000000 0 0.109 0.891
329 0 0 1000000000 0 0.07692 0.9231
330 0 0 1000000000 0 0.3337 0.6663
331 0 0 1000000000 0 0.7545 0.2455
332 0 0 1000000000 0 0.9988 0.00124
333 0 0 1000000000 0 0.1097 0.8903
334 0 0 1000000000 0 0.6425 0.3575
335 0 0 1000000000 0 0.8123 0.1877
336 0 0 1000000000 0 0.25 0.75
337 0 0 1000000000 0 0.4325 0.5675
338 0 0 1000000000 0 0.122 0.878
339 0 0 1000000000 0 0.01295 0.9871
340 0 0 1000000000 0 0.5282 0.4718
341 0 0 1000000000 0 0.5579 0.4421
342 0 0 1000000000 0 0.8289 0.1711
343 0 0 1000000000 0 0.08176 0.9182
344 0 0 1000000000 0 0.6538 0.3462
345 0 0 1000000000 0 0.7195 0.2805
346 0 0 1000000000 0 0.7 0.3
347 0 0 1000000000 0 0.4779 0.5221
348 0 0 1000000000 0 0.3846 0.6154
349 0 0 1000000000 0 0.5852 0.4148
350 0 0 1000000000 0 0.9774 0.02265
351 0 0 1000000000 0 0.7815 0.2185
352 0 0 1000000000 0 0.7009 0.2991
353 0 0 1000000000 0 0.6867 0.3133
354 0 0 1000000000 0 0.4497 0.5503
355 0 0 1000000000 0 0.5105 0.4895
356 0 0 1000000000 0 0.662 0.338
357 0 0 1000000000 0 0.2461 0.7539
358 0 0 1000000000 0 0.7323 0.2677
359 0 0 1000000000 0 0.2649 0.7351
360 0 0 1000000000 0 0.9401 0.05991
361 0 0 1000000000 0 0.9987 0.00127
362 0 0 1000000000 0 0.3855 0.6145
363 0 0 1000000000 0 0.8392 0.1608
364 0 0 1000000000 0 0.9462 0.0538
365 0 0 1000000000 0 0.6833 0.3167
366 0 0 1000000000 0 0.291 0.709
367 0 0 1000000000 0 0.7815 0.2185
368 0 0 1000000000 0 0.12 0.88
369 0 0 1000000000 0 0.4275 0.5725
370 0 0 1000000000 0 0.2555 0.7445
371 0 0 1000000000 0 0.9071 0.09289
372 0 0 1000000000 0 0.03367 0.9663
373 0 0 1000000000 0 0.6312 0.3688
374 0 0 1000000000 0 0.9737 0.02634
375 0 0 1000000000 0 0.5591 0.4409
376 0 0 1000000000 0 0.6318 0.3682
377 0 0 1000000000 0 0.1817 0.8183
378 0 0 1000000000 0 0.9327 0.06726
379 0 0 1000000000 0 0.5811 0.4189
380 0 0 1000000000 0 0.7764 0.2236
381 0 0 1000000000 0 0.6719 0.3281
382 0 0 1000000000 0 0.5646 0.4354
383 0 0 1000000000 0 0.473 0.527
384 0 0 1000000000 0 0.3276 0.6724
385 0 0 1000000000 0 0.7781 0.2219
386 0 0 1000000000 0 0.4977 0.5023
387 0 0 1000000000 0 0.3909 0.6091
388 0 0 1000000000 0 0.0281 0.9719
389 0 0 1000000000 0 0.9735 0.02646
390 0 0 1000000000 0 0.2331 0.7669
391 0 0 1000000000 0 0.698 0.302
392 0 0 1000000000 0 0.638 0.362
393 0 0 1000000000 0 0.07418 0.9258
394 0 0 1000000000 0 0.257 0.743
395 0 0 1000000000 0 0.1159 0.8841
396 0 0 1000000000 0 0.8964 0.1036
397 0 0 1000000000 0 0.05282 0.9472
398 0 0 1000000000 0 0.4155 0.5845
399 0 0 1000000000 0 0.4281 0.5719
400 0 0 1000000000 0 0.3696 0.6304
401 0 0 1000000000 0 0.8029 0.1971
402 0 0 1000000000 0 0.8967 0.1033
403 0 0 1000000000 0 0.1079 0.8921
404 0 0 1000000000 0 0.1371 0.8629
405 0 0 1000000000 0 0.9525 0.04752
406 0 0 1000000000 0 0.07241 0.9276
407 0 0 1000000000 0 0.264 0.736
408 0 0 1000000000 0 0.4164 0.5836
409 0 0 1000000000 0 0.737 0.263
410 0 0 1000000000 0 0.5587 0.4413
411 0 0 1000000000 0 0.2276 0.7724
412 0 0 1000000000 0 0.8495 0.1505
413 0 0 1000000000 0 0.01231 0.9877
414 0 0 1000000000 0 0.4628 0.5372
415 0 0 1000000000 0 0.2618 0.7382
416 0 0 1000000000 0 0.7616 0.2384
417 0 0 1000000000 0 0.4043 0.5957
418 0 0 1000000000 0 0.2869 0.7131
419 0 0 1000000000 0 0.7818 0.2182
420 0 0 1000000000 0 0.4326 0.5674
421 0 0 1000000000 0 0.1238 0.8762
422 0 0 1000000000 0 0.4237 0.5763
423 0 0 1000000000 0 0.5575 0.4425
424 0 0 1000000000 0 0.4615 0.5385
425 0 0 1000000000 0 0.1593 0.8407
426 0 0 1000000000 0 0.3483 0.6517
427 0 0 1000000000 0 0.6742 0.3258
428 0 0 1000000000 0 0.5412 0.4588
429 0 0 1000000000 0 0.8924 0.1076
430 0 0 1000000000 0 0.8743 0.1257
431 0 0 1000000000 0 0.9158 0.08416
432 0 0 1000000000 0 0.7506 0.2494
433 0 0 1000000000 0 0.07238 0.9276
434 0 0 1000000000 0 0.603 0.397
435 0 0 1000000000 0 0.1751 0.8249
436 0 0 1000000000 0 0.2186 0.7814
437 0 0 1000000000 0 0.9885 0.01152
438 0 0 1000000000 0 0.3073 0.6927
439 0 0 1000000000 0 0.7475 0.2525
440 0 0 1000000000 0 0.5769 0.4231
441 0 0 1000000000 0 0.7995 0.2005
442 0 0 1000000000 0 0.3408 0.6592
443 0 0 1000000000 0 0.1743 0.8257
444 0 0 1000000000 0 0.3088 0.6912
445 0 0 1000000000 0 0.1662 0.8338
446 0 0 1000000000 0 0.6646 0.3354
447 0 0 1000000000 0 0.5837 0.4163
448 0 0 1000000000 0 0.4094 0.5906
449 0 0 1000000000 0 0.6774 0.3226
450 0 0 1000000000 0 0.4 0.6
451 0 0 1000000000 0 0.7688 0.2312
452 0 0 1000000000 0 0.7039 0.2961
453 0 0 1000000000 0 0.6998 0.3002
454 0 0 1000000000 0 0.5125 0.4875
455 0 0 1000000000 0 0.691 0.309
456 0 0 1000000000 0 0.8893 0.1107
457 0 0 1000000000 0 0.488 0.512
458 0 0 1000000000 0 0.5617 0.4383
459 0 0 1000000000 0 0.4539 0.5461
460 0 0 1000000000 0 0.2248 0.7752
461 0 0 1000000000 0 0.03141 0.9686
462 0 0 1000000000 0 0.9428 0.05721
463 0 0 1000000000 0 0.1394 0.8606
464 0 0 1000000000 0 0.2452 0.7548
465 0 0 1000000000 0 0.7977 0.2023
466 0 0 1000000000 0 0.04288 0.9571
467 0 0 1000000000 0 0.8734 0.1266
468 0 0 1000000000 0 0.7354 0.2646
469 0 0 1000000000 0 0.6139 0.3861
470 0 0 1000000000 0 0.892 0.108
471 0 0 1000000000 0 0.3148 0.6852
472 0 0 1000000000 0 0.9644 0.03562
473 0 0 1000000000 0 0.9559 0.04409
474 0 0 1000000000 0 0.4364 0.5636
475 0 0 1000000000 0 0.9311 0.06893
476 0 0 1000000000 0 0.7351 0.2649
477 0 0 1000000000 0 0 1
478 0 0 1000000000 0 0.1528 0.8472
479 0 0 1000000000 0 0.9544 0.04558
480 0 0 1000000000 0 0.5074 0.4926
481 0 0 1000000000 0 0.01406 0.9859
482 0 0 1000000000 0 0.1303 0.8697
483 0 0 1000000000 0 0.8445 0.1555
484 0 0 1000000000 0 0.3495 0.6505
485 0 0 1000000000 0 0.8626 0.1374
486 0 0 1000000000 0 0.4123 0.5877
487 0 0 1000000000 0 0.7449 0.2551
488 0 0 1000000000 0 0.1583 0.8417
489 0 0 1000000000 0 0.8514 0.1486
490 0 0 1000000000 0 0.2246 0.7754
491 0 0 1000000000 0 0.109 0.891
492 0 0 1000000000 0 0.9243 0.07573
493 0 0 1000000000 0 0.5219 0.4781
494 0 0 1000000000 0 0.5491 0.4509
495 0 0 1000000000 0 0.2106 0.7894
496 0 0 1000000000 0 0.4709 0.5291
497 0 0 1000000000 0 0.2178 0.7822
498 0 0 1000000000 0 0.9288 0.07123
499 0 0 1000000000 0 0.5526 0.4474
500 0 0 1000000000 0 0.2613 0.7387
501 0 0 1000000000 0 0.8323 0.1677
502 0 0 1000000000 0 0.1843 0.8157
503 0 0 1000000000 0 0.8714 0.1286
504 0 0 1000000000 0 0.3112 0.6888
505 0 0 1000000000 0 0.08163 0.9184
506 0 0 1000000000 0 0.7057 0.2943
507 0 0 1000000000 0 0.09647 0.9035
508 0 0 1000000000 0 0.6088 0.3912
509 0 0 1000000000 0 0.08479 0.9152
510 0 0 1000000000 0 0.06419 0.9358
511 0 0 1000000000 0 0.2808 0.7192
512 0 0 1000000000 0 0.267 0.733
513 0 0 1000000000 0 0.3311 0.6689
514 0 0 1000000000 0 0.4298 0.5702
515 0 0 1000000000 0 0.741 0.259
516 0 0 1000000000 0 0.201 0.799
517 0 0 1000000000 0 0.1533 0.8467
518 0 0 1000000000 0 0.3622 0.6378
519 0 0 1000000000 0 0.9178 0.08219
520 0 0 1000000000 0 0.2509 0.7491
521 0 0 1000000000 0 0.5782 0.4218
522 0 0 1000000000 0 0.7755 0.2245
523 0 0 1000000000 0 0.6506 0.3494
524 0 0 1000000000 0 0.4969 0.5031
525 0 0 1000000000 0 0.2829 0.7171
526 0 0 1000000000 0 0.1588 0.8412
527 0 0 1000000000 0 0.5156 0.4844
528 0 0 1000000000 0 0.2591 0.7409
529 0 0 1000000000 0 0.1502 0.8498
530 0 0 1000000000 0 0.535 0.465
531 0 0 1000000000 0 0.5878 0.4122
532 0 0 1000000000 0 0.0836 0.9164
533 0 0 1000000000 0 0.1637 0.8363
534 0 0 1000000000 0 0.9934 0.00656
535 0 0 1000000000 0 0.2064 0.7936
536 0 0 1000000000 0 0.5299 0.4701
537 0 0 1000000000 0 0.7026 0.2974
538 0 0 1000000000 0 0.2973 0.7027
539 0 0 1000000000 0 0.01804 0.982
540 0 0 1000000000 0 0.6409 0.3591
541 0 0 1000000000 0 0.7566 0.2434
542 0 0 1000000000 0 0.31 0.69
543 0 0 1000000000 0 0.41 0.59
544 0 0 1000000000 0 0.02331 0.9767
545 0 0 1000000000 0 0.9551 0.04486
546 0 0 1000000000 0 0.7982 0.2018
547 0 0 1000000000 0 0.08696 0.913
548 0 0 1000000000 0 0.3823 0.6177
